4
4 1 1 1
4.50000 2.90000 4.20000 4.10000 1.00000
18 18 18 1
0.14000 0.36000 -0.30000 1.08000 2 0.00000 0.00000 0
0.04667 0.36000 0.34667 1.08000 2 0.00000 0.00000 0
0.14000 0.36000 0.30000 2.40000 2 0.00000 0.00000 0
0.04667 0.36000 -0.34667 2.40000 2 0.00000 0.00000 0
1
-0.37000 0.30000
0.37000 0.30000
10
1
-0.37000 4.20000
0.37000 4.20000
10
1
-0.37000 6.76000
0.37000 6.76000
10
1
-0.37000 7.56000
0.37000 7.56000
10
3
-0.37000 0.00000
-0.37000 1.56000
-0.37000 11.56000
0.37000 11.56000
50 30 15
2
0.37000 0.00000
0.37000 2.88000
0.37000 11.56000
50 30
